\ SCIP STATISTICS
\   Problem name     : CapacitatedFacilityLocation-20-10
\   Variables        : 210 (210 binary, 0 integer, 0 implicit integer, 0 continuous)
\   Constraints      : 231
Minimize
 Obj: +763.248916810279 x0 +1054.71080138763 x1 +744.919995428049 x2 +1305 x3 +1459.67855989742 x4 +870.455716618385 x5
      +607 x6 +1103.18706459657 x7 +1365.81229026844 x8 +964.647182049349 x9 +317.372336753005 x10 +366.918677833106 x11
      +215.364552332005 x12 +352.344750972341 x13 +233.333127886325 x14 +71.7715965644834 x15 +293.715603043666 x16
      +74.9581073381363 x17 +278.880716378394 x18 +171.013552431082 x19 +127.883211326451 x20 +235.105598427772 x21
      +244.338414476468 x22 +92.0422252210482 x23 +198.811296598717 x24 +185.644195110618 x25 +137.331048102581 x26
      +205.885614593305 x27 +28.7292813110808 x28 +184.166338367252 x29 +68.0136162387436 x30 +54.2465519048536 x31
      +7.17104718950186 x32 +89.7324212200384 x33 +20.1161189715325 x34 +41.6844239877668 x35 +58.3404286243084 x36
      +38.9368087903183 x37 +91.0018356922659 x38 +20.7667971975076 x39 +24.800362086039 x40 +89.1844899250863 x41
      +118.128126290006 x42 +7.67542210589728 x43 +84.8043197823174 x44 +107.988076118318 x45 +35.6600441768522 x46
      +117.84516807715 x47 +45.9989425040321 x48 +87.9060588610728 x49 +146.454822033448 x50 +209.982621010731 x51
      +146.863437972724 x52 +171.49820423601 x53 +119.723618581105 x54 +62.4994730906063 x55 +130.952997065382 x56
      +85.8411653666398 x57 +127.351715333633 x58 +79.2265650470434 x59 +34.5190285455885 x60 +106.485811820186 x61
      +183.057347414424 x62 +102.324610918541 x63 +108.848431604647 x64 +202.346836830091 x65 +21.0382531309569 x66
      +216.915097952337 x67 +162.367198785051 x68 +134.802345102065 x69 +136.366007012722 x70 +62.1563582169575 x71
      +76.0945533484306 x72 +194.45284567137 x73 +48.4926143646067 x74 +159.003706270151 x75 +115.476900860079 x76
      +158.083303504924 x77 +225.13089798818 x78 +90.9781354078017 x79 +133.828712208399 x80 +113.274282460835 x81
      +32.5420640309995 x82 +180.947546730936 x83 +30.8872444227648 x84 +85.7420172575643 x85 +112.589876137246 x86
      +83.4425744614893 x87 +183.872447089822 x88 +31.0667986323342 x89 +73.7751695989126 x90 +41.2497817441656 x91
      +64.1326088013692 x92 +114.823211085959 x93 +26.1562515432992 x94 +106.335227681365 x95 +58.8089398362234 x96
      +108.904001118572 x97 +137.738111639738 x98 +56.7114812464624 x99 +168.817578655331 x100 +111.99598464448 x101
      +27.3168147502656 x102 +219.861806005656 x103 +63.9488025082102 x104 +126.629764408776 x105 +147.890343056561 x106
      +118.185142565518 x107 +231.550227544838 x108 +80.552432705585 x109 +85.0595299573025 x110 +128.836028931235 x111
      +97.4284789049591 x112 +113.374401092107 x113 +64.1945869378059 x114 +65.2638211750548 x115 +70.6117673370387 x116
      +79.2202137934052 x117 +99.1267685420336 x118 +42.4641697748997 x119 +82.1683467726558 x120 +26.0699628885086 x121
      +60.650752559114 x122 +118.579744179805 x123 +39.7657404570048 x124 +110.603873121032 x125 +70.3495210301297 x126
      +110.829272822785 x127 +142.731731201482 x128 +67.3017636228432 x129 +133.422487852486 x130 +145.664303421019 x131
      +309.633190721572 x132 +165.751500028747 x133 +230.893137129625 x134 +357.103110754712 x135 +146.716319115002 x136
      +371.905387324506 x137 +275.042578063064 x138 +274.236784955872 x139 +28.1382761643068 x140 +50.3139961140726 x141
      +47.7483879284603 x142 +24.1329678616426 x143 +38.8069318066589 x144 +32.4859202531713 x145 +28.7044373739789 x146
      +37.114645804318 x147 +6.6696620026961 x148 +33.989880577953 x149 +18.2554468544209 x150 +37.4452573925399 x151
      +35.618466787431 x152 +25.6449157028438 x153 +22.8317225686804 x154 +27.6280012609522 x155 +15.0258218217805 x156
      +32.0559317559668 x157 +23.6378339794104 x158 +19.7466715989604 x159 +62.6569697620793 x160 +155.530508612061 x161
      +167.298602144559 x162 +53.5318428019461 x163 +122.573216402937 x164 +130.482658090806 x165 +67.0306349793078 x166
      +147.495318173962 x167 +35.1961183279933 x168 +114.210919946109 x169 +142.902654379399 x170 +303.954050151398 x171
      +310.800273530604 x172 +117.254743277003 x173 +237.873893366587 x174 +229.299273687812 x175 +149.85586838751 x176
      +260.546445759433 x177 +32.9436967225168 x178 +215.580784663139 x179 +121.413304200115 x180 +241.49828520042 x181
      +251.421943479325 x182 +88.0964143145198 x183 +198.960220576802 x184 +189.479888973553 x185 +130.442517769488 x186
      +212.201127210764 x187 +7.31747709501302 x188 +183.318652958421 x189 +72.0465888258136 x190 +174.127101437764 x191
      +179.493284571928 x192 +77.9270332093837 x193 +127.232391686433 x194 +136.765975990458 x195 +70.8766355506218 x196
      +156.691764034061 x197 +58.7953644052225 x198 +115.46257062327 x199 +81.1072734252388 x200 +97.7248485303841 x201
      +53.3359098890393 x202 +102.795988206955 x203 +44.1536082377926 x204 +25.4046348149127 x205 +69.6362673199385 x206
      +32.8489100416207 x207 +89.7014235000898 x208 +18.9913143019249 x209
Subject to
 c0: +1 x10 +1 x11 +1 x12 +1 x13 +1 x14 +1 x15 +1 x16 +1 x17 +1 x18 +1 x19 >= +1
 c1: +1 x20 +1 x21 +1 x22 +1 x23 +1 x24 +1 x25 +1 x26 +1 x27 +1 x28 +1 x29 >= +1
 c2: +1 x30 +1 x31 +1 x32 +1 x33 +1 x34 +1 x35 +1 x36 +1 x37 +1 x38 +1 x39 >= +1
 c3: +1 x40 +1 x41 +1 x42 +1 x43 +1 x44 +1 x45 +1 x46 +1 x47 +1 x48 +1 x49 >= +1
 c4: +1 x50 +1 x51 +1 x52 +1 x53 +1 x54 +1 x55 +1 x56 +1 x57 +1 x58 +1 x59 >= +1
 c5: +1 x60 +1 x61 +1 x62 +1 x63 +1 x64 +1 x65 +1 x66 +1 x67 +1 x68 +1 x69 >= +1
 c6: +1 x70 +1 x71 +1 x72 +1 x73 +1 x74 +1 x75 +1 x76 +1 x77 +1 x78 +1 x79 >= +1
 c7: +1 x80 +1 x81 +1 x82 +1 x83 +1 x84 +1 x85 +1 x86 +1 x87 +1 x88 +1 x89 >= +1
 c8: +1 x90 +1 x91 +1 x92 +1 x93 +1 x94 +1 x95 +1 x96 +1 x97 +1 x98 +1 x99 >= +1
 c9: +1 x100 +1 x101 +1 x102 +1 x103 +1 x104 +1 x105 +1 x106 +1 x107 +1 x108 +1 x109 >= +1
 c10: +1 x110 +1 x111 +1 x112 +1 x113 +1 x114 +1 x115 +1 x116 +1 x117 +1 x118 +1 x119 >= +1
 c11: +1 x120 +1 x121 +1 x122 +1 x123 +1 x124 +1 x125 +1 x126 +1 x127 +1 x128 +1 x129 >= +1
 c12: +1 x130 +1 x131 +1 x132 +1 x133 +1 x134 +1 x135 +1 x136 +1 x137 +1 x138 +1 x139 >= +1
 c13: +1 x140 +1 x141 +1 x142 +1 x143 +1 x144 +1 x145 +1 x146 +1 x147 +1 x148 +1 x149 >= +1
 c14: +1 x150 +1 x151 +1 x152 +1 x153 +1 x154 +1 x155 +1 x156 +1 x157 +1 x158 +1 x159 >= +1
 c15: +1 x160 +1 x161 +1 x162 +1 x163 +1 x164 +1 x165 +1 x166 +1 x167 +1 x168 +1 x169 >= +1
 c16: +1 x170 +1 x171 +1 x172 +1 x173 +1 x174 +1 x175 +1 x176 +1 x177 +1 x178 +1 x179 >= +1
 c17: +1 x180 +1 x181 +1 x182 +1 x183 +1 x184 +1 x185 +1 x186 +1 x187 +1 x188 +1 x189 >= +1
 c18: +1 x190 +1 x191 +1 x192 +1 x193 +1 x194 +1 x195 +1 x196 +1 x197 +1 x198 +1 x199 >= +1
 c19: +1 x200 +1 x201 +1 x202 +1 x203 +1 x204 +1 x205 +1 x206 +1 x207 +1 x208 +1 x209 >= +1
 c20: +34 x10 +22 x20 +10 x30 +13 x40 +26 x50 +28 x60 +24 x70 +22 x80 +17 x90 +22 x100 +20 x110 +15 x120
  +32 x130 +5 x140 +6 x150 +20 x160 +35 x170 +25 x180 +24 x190 +14 x200 -118 x0 <= +0
 c21: +34 x11 +22 x21 +10 x31 +13 x41 +26 x51 +28 x61 +24 x71 +22 x81 +17 x91 +22 x101 +20 x111 +15 x121
  +32 x131 +5 x141 +6 x151 +20 x161 +35 x171 +25 x181 +24 x191 +14 x201 -200 x1 <= +0
 c22: +34 x12 +22 x22 +10 x32 +13 x42 +26 x52 +28 x62 +24 x72 +22 x82 +17 x92 +22 x102 +20 x112 +15 x122
  +32 x132 +5 x142 +6 x152 +20 x162 +35 x172 +25 x182 +24 x192 +14 x202 -99 x2 <= +0
 c23: +34 x13 +22 x23 +10 x33 +13 x43 +26 x53 +28 x63 +24 x73 +22 x83 +17 x93 +22 x103 +20 x113 +15 x123
  +32 x133 +5 x143 +6 x153 +20 x163 +35 x173 +25 x183 +24 x193 +14 x203 -339 x3 <= +0
 c24: +34 x14 +22 x24 +10 x34 +13 x44 +26 x54 +28 x64 +24 x74 +22 x84 +17 x94 +22 x104 +20 x114 +15 x124
  +32 x134 +5 x144 +6 x154 +20 x164 +35 x174 +25 x184 +24 x194 +14 x204 -373 x4 <= +0
 c25: +34 x15 +22 x25 +10 x35 +13 x45 +26 x55 +28 x65 +24 x75 +22 x85 +17 x95 +22 x105 +20 x115 +15 x125
  +32 x135 +5 x145 +6 x155 +20 x165 +35 x175 +25 x185 +24 x195 +14 x205 -144 x5 <= +0
 c26: +34 x16 +22 x26 +10 x36 +13 x46 +26 x56 +28 x66 +24 x76 +22 x86 +17 x96 +22 x106 +20 x116 +15 x126
  +32 x136 +5 x146 +6 x156 +20 x166 +35 x176 +25 x186 +24 x196 +14 x206 -59 x6 <= +0
 c27: +34 x17 +22 x27 +10 x37 +13 x47 +26 x57 +28 x67 +24 x77 +22 x87 +17 x97 +22 x107 +20 x117 +15 x127
  +32 x137 +5 x147 +6 x157 +20 x167 +35 x177 +25 x187 +24 x197 +14 x207 -238 x7 <= +0
 c28: +34 x18 +22 x28 +10 x38 +13 x48 +26 x58 +28 x68 +24 x78 +22 x88 +17 x98 +22 x108 +20 x118 +15 x128
  +32 x138 +5 x148 +6 x158 +20 x168 +35 x178 +25 x188 +24 x198 +14 x208 -323 x8 <= +0
 c29: +34 x19 +22 x29 +10 x39 +13 x49 +26 x59 +28 x69 +24 x79 +22 x89 +17 x99 +22 x109 +20 x119 +15 x129
  +32 x139 +5 x149 +6 x159 +20 x169 +35 x179 +25 x189 +24 x199 +14 x209 -177 x9 <= +0
 c30: +118 x0 +200 x1 +99 x2 +339 x3 +373 x4 +144 x5 +59 x6 +238 x7 +323 x8 +177 x9 >= +414
 c31: +1 x10 -1 x0 <= +0
 c32: +1 x11 -1 x1 <= +0
 c33: +1 x12 -1 x2 <= +0
 c34: +1 x13 -1 x3 <= +0
 c35: +1 x14 -1 x4 <= +0
 c36: +1 x15 -1 x5 <= +0
 c37: +1 x16 -1 x6 <= +0
 c38: +1 x17 -1 x7 <= +0
 c39: +1 x18 -1 x8 <= +0
 c40: +1 x19 -1 x9 <= +0
 c41: +1 x20 -1 x0 <= +0
 c42: +1 x21 -1 x1 <= +0
 c43: +1 x22 -1 x2 <= +0
 c44: +1 x23 -1 x3 <= +0
 c45: +1 x24 -1 x4 <= +0
 c46: +1 x25 -1 x5 <= +0
 c47: +1 x26 -1 x6 <= +0
 c48: +1 x27 -1 x7 <= +0
 c49: +1 x28 -1 x8 <= +0
 c50: +1 x29 -1 x9 <= +0
 c51: +1 x30 -1 x0 <= +0
 c52: +1 x31 -1 x1 <= +0
 c53: +1 x32 -1 x2 <= +0
 c54: +1 x33 -1 x3 <= +0
 c55: +1 x34 -1 x4 <= +0
 c56: +1 x35 -1 x5 <= +0
 c57: +1 x36 -1 x6 <= +0
 c58: +1 x37 -1 x7 <= +0
 c59: +1 x38 -1 x8 <= +0
 c60: +1 x39 -1 x9 <= +0
 c61: +1 x40 -1 x0 <= +0
 c62: +1 x41 -1 x1 <= +0
 c63: +1 x42 -1 x2 <= +0
 c64: +1 x43 -1 x3 <= +0
 c65: +1 x44 -1 x4 <= +0
 c66: +1 x45 -1 x5 <= +0
 c67: +1 x46 -1 x6 <= +0
 c68: +1 x47 -1 x7 <= +0
 c69: +1 x48 -1 x8 <= +0
 c70: +1 x49 -1 x9 <= +0
 c71: +1 x50 -1 x0 <= +0
 c72: +1 x51 -1 x1 <= +0
 c73: +1 x52 -1 x2 <= +0
 c74: +1 x53 -1 x3 <= +0
 c75: +1 x54 -1 x4 <= +0
 c76: +1 x55 -1 x5 <= +0
 c77: +1 x56 -1 x6 <= +0
 c78: +1 x57 -1 x7 <= +0
 c79: +1 x58 -1 x8 <= +0
 c80: +1 x59 -1 x9 <= +0
 c81: +1 x60 -1 x0 <= +0
 c82: +1 x61 -1 x1 <= +0
 c83: +1 x62 -1 x2 <= +0
 c84: +1 x63 -1 x3 <= +0
 c85: +1 x64 -1 x4 <= +0
 c86: +1 x65 -1 x5 <= +0
 c87: +1 x66 -1 x6 <= +0
 c88: +1 x67 -1 x7 <= +0
 c89: +1 x68 -1 x8 <= +0
 c90: +1 x69 -1 x9 <= +0
 c91: +1 x70 -1 x0 <= +0
 c92: +1 x71 -1 x1 <= +0
 c93: +1 x72 -1 x2 <= +0
 c94: +1 x73 -1 x3 <= +0
 c95: +1 x74 -1 x4 <= +0
 c96: +1 x75 -1 x5 <= +0
 c97: +1 x76 -1 x6 <= +0
 c98: +1 x77 -1 x7 <= +0
 c99: +1 x78 -1 x8 <= +0
 c100: +1 x79 -1 x9 <= +0
 c101: +1 x80 -1 x0 <= +0
 c102: +1 x81 -1 x1 <= +0
 c103: +1 x82 -1 x2 <= +0
 c104: +1 x83 -1 x3 <= +0
 c105: +1 x84 -1 x4 <= +0
 c106: +1 x85 -1 x5 <= +0
 c107: +1 x86 -1 x6 <= +0
 c108: +1 x87 -1 x7 <= +0
 c109: +1 x88 -1 x8 <= +0
 c110: +1 x89 -1 x9 <= +0
 c111: +1 x90 -1 x0 <= +0
 c112: +1 x91 -1 x1 <= +0
 c113: +1 x92 -1 x2 <= +0
 c114: +1 x93 -1 x3 <= +0
 c115: +1 x94 -1 x4 <= +0
 c116: +1 x95 -1 x5 <= +0
 c117: +1 x96 -1 x6 <= +0
 c118: +1 x97 -1 x7 <= +0
 c119: +1 x98 -1 x8 <= +0
 c120: +1 x99 -1 x9 <= +0
 c121: +1 x100 -1 x0 <= +0
 c122: +1 x101 -1 x1 <= +0
 c123: +1 x102 -1 x2 <= +0
 c124: +1 x103 -1 x3 <= +0
 c125: +1 x104 -1 x4 <= +0
 c126: +1 x105 -1 x5 <= +0
 c127: +1 x106 -1 x6 <= +0
 c128: +1 x107 -1 x7 <= +0
 c129: +1 x108 -1 x8 <= +0
 c130: +1 x109 -1 x9 <= +0
 c131: +1 x110 -1 x0 <= +0
 c132: +1 x111 -1 x1 <= +0
 c133: +1 x112 -1 x2 <= +0
 c134: +1 x113 -1 x3 <= +0
 c135: +1 x114 -1 x4 <= +0
 c136: +1 x115 -1 x5 <= +0
 c137: +1 x116 -1 x6 <= +0
 c138: +1 x117 -1 x7 <= +0
 c139: +1 x118 -1 x8 <= +0
 c140: +1 x119 -1 x9 <= +0
 c141: +1 x120 -1 x0 <= +0
 c142: +1 x121 -1 x1 <= +0
 c143: +1 x122 -1 x2 <= +0
 c144: +1 x123 -1 x3 <= +0
 c145: +1 x124 -1 x4 <= +0
 c146: +1 x125 -1 x5 <= +0
 c147: +1 x126 -1 x6 <= +0
 c148: +1 x127 -1 x7 <= +0
 c149: +1 x128 -1 x8 <= +0
 c150: +1 x129 -1 x9 <= +0
 c151: +1 x130 -1 x0 <= +0
 c152: +1 x131 -1 x1 <= +0
 c153: +1 x132 -1 x2 <= +0
 c154: +1 x133 -1 x3 <= +0
 c155: +1 x134 -1 x4 <= +0
 c156: +1 x135 -1 x5 <= +0
 c157: +1 x136 -1 x6 <= +0
 c158: +1 x137 -1 x7 <= +0
 c159: +1 x138 -1 x8 <= +0
 c160: +1 x139 -1 x9 <= +0
 c161: +1 x140 -1 x0 <= +0
 c162: +1 x141 -1 x1 <= +0
 c163: +1 x142 -1 x2 <= +0
 c164: +1 x143 -1 x3 <= +0
 c165: +1 x144 -1 x4 <= +0
 c166: +1 x145 -1 x5 <= +0
 c167: +1 x146 -1 x6 <= +0
 c168: +1 x147 -1 x7 <= +0
 c169: +1 x148 -1 x8 <= +0
 c170: +1 x149 -1 x9 <= +0
 c171: +1 x150 -1 x0 <= +0
 c172: +1 x151 -1 x1 <= +0
 c173: +1 x152 -1 x2 <= +0
 c174: +1 x153 -1 x3 <= +0
 c175: +1 x154 -1 x4 <= +0
 c176: +1 x155 -1 x5 <= +0
 c177: +1 x156 -1 x6 <= +0
 c178: +1 x157 -1 x7 <= +0
 c179: +1 x158 -1 x8 <= +0
 c180: +1 x159 -1 x9 <= +0
 c181: +1 x160 -1 x0 <= +0
 c182: +1 x161 -1 x1 <= +0
 c183: +1 x162 -1 x2 <= +0
 c184: +1 x163 -1 x3 <= +0
 c185: +1 x164 -1 x4 <= +0
 c186: +1 x165 -1 x5 <= +0
 c187: +1 x166 -1 x6 <= +0
 c188: +1 x167 -1 x7 <= +0
 c189: +1 x168 -1 x8 <= +0
 c190: +1 x169 -1 x9 <= +0
 c191: +1 x170 -1 x0 <= +0
 c192: +1 x171 -1 x1 <= +0
 c193: +1 x172 -1 x2 <= +0
 c194: +1 x173 -1 x3 <= +0
 c195: +1 x174 -1 x4 <= +0
 c196: +1 x175 -1 x5 <= +0
 c197: +1 x176 -1 x6 <= +0
 c198: +1 x177 -1 x7 <= +0
 c199: +1 x178 -1 x8 <= +0
 c200: +1 x179 -1 x9 <= +0
 c201: +1 x180 -1 x0 <= +0
 c202: +1 x181 -1 x1 <= +0
 c203: +1 x182 -1 x2 <= +0
 c204: +1 x183 -1 x3 <= +0
 c205: +1 x184 -1 x4 <= +0
 c206: +1 x185 -1 x5 <= +0
 c207: +1 x186 -1 x6 <= +0
 c208: +1 x187 -1 x7 <= +0
 c209: +1 x188 -1 x8 <= +0
 c210: +1 x189 -1 x9 <= +0
 c211: +1 x190 -1 x0 <= +0
 c212: +1 x191 -1 x1 <= +0
 c213: +1 x192 -1 x2 <= +0
 c214: +1 x193 -1 x3 <= +0
 c215: +1 x194 -1 x4 <= +0
 c216: +1 x195 -1 x5 <= +0
 c217: +1 x196 -1 x6 <= +0
 c218: +1 x197 -1 x7 <= +0
 c219: +1 x198 -1 x8 <= +0
 c220: +1 x199 -1 x9 <= +0
 c221: +1 x200 -1 x0 <= +0
 c222: +1 x201 -1 x1 <= +0
 c223: +1 x202 -1 x2 <= +0
 c224: +1 x203 -1 x3 <= +0
 c225: +1 x204 -1 x4 <= +0
 c226: +1 x205 -1 x5 <= +0
 c227: +1 x206 -1 x6 <= +0
 c228: +1 x207 -1 x7 <= +0
 c229: +1 x208 -1 x8 <= +0
 c230: +1 x209 -1 x9 <= +0
Bounds
 0 <= x0 <= 1
 0 <= x1 <= 1
 0 <= x2 <= 1
 0 <= x3 <= 1
 0 <= x4 <= 1
 0 <= x5 <= 1
 0 <= x6 <= 1
 0 <= x7 <= 1
 0 <= x8 <= 1
 0 <= x9 <= 1
 0 <= x10 <= 1
 0 <= x11 <= 1
 0 <= x12 <= 1
 0 <= x13 <= 1
 0 <= x14 <= 1
 0 <= x15 <= 1
 0 <= x16 <= 1
 0 <= x17 <= 1
 0 <= x18 <= 1
 0 <= x19 <= 1
 0 <= x20 <= 1
 0 <= x21 <= 1
 0 <= x22 <= 1
 0 <= x23 <= 1
 0 <= x24 <= 1
 0 <= x25 <= 1
 0 <= x26 <= 1
 0 <= x27 <= 1
 0 <= x28 <= 1
 0 <= x29 <= 1
 0 <= x30 <= 1
 0 <= x31 <= 1
 0 <= x32 <= 1
 0 <= x33 <= 1
 0 <= x34 <= 1
 0 <= x35 <= 1
 0 <= x36 <= 1
 0 <= x37 <= 1
 0 <= x38 <= 1
 0 <= x39 <= 1
 0 <= x40 <= 1
 0 <= x41 <= 1
 0 <= x42 <= 1
 0 <= x43 <= 1
 0 <= x44 <= 1
 0 <= x45 <= 1
 0 <= x46 <= 1
 0 <= x47 <= 1
 0 <= x48 <= 1
 0 <= x49 <= 1
 0 <= x50 <= 1
 0 <= x51 <= 1
 0 <= x52 <= 1
 0 <= x53 <= 1
 0 <= x54 <= 1
 0 <= x55 <= 1
 0 <= x56 <= 1
 0 <= x57 <= 1
 0 <= x58 <= 1
 0 <= x59 <= 1
 0 <= x60 <= 1
 0 <= x61 <= 1
 0 <= x62 <= 1
 0 <= x63 <= 1
 0 <= x64 <= 1
 0 <= x65 <= 1
 0 <= x66 <= 1
 0 <= x67 <= 1
 0 <= x68 <= 1
 0 <= x69 <= 1
 0 <= x70 <= 1
 0 <= x71 <= 1
 0 <= x72 <= 1
 0 <= x73 <= 1
 0 <= x74 <= 1
 0 <= x75 <= 1
 0 <= x76 <= 1
 0 <= x77 <= 1
 0 <= x78 <= 1
 0 <= x79 <= 1
 0 <= x80 <= 1
 0 <= x81 <= 1
 0 <= x82 <= 1
 0 <= x83 <= 1
 0 <= x84 <= 1
 0 <= x85 <= 1
 0 <= x86 <= 1
 0 <= x87 <= 1
 0 <= x88 <= 1
 0 <= x89 <= 1
 0 <= x90 <= 1
 0 <= x91 <= 1
 0 <= x92 <= 1
 0 <= x93 <= 1
 0 <= x94 <= 1
 0 <= x95 <= 1
 0 <= x96 <= 1
 0 <= x97 <= 1
 0 <= x98 <= 1
 0 <= x99 <= 1
 0 <= x100 <= 1
 0 <= x101 <= 1
 0 <= x102 <= 1
 0 <= x103 <= 1
 0 <= x104 <= 1
 0 <= x105 <= 1
 0 <= x106 <= 1
 0 <= x107 <= 1
 0 <= x108 <= 1
 0 <= x109 <= 1
 0 <= x110 <= 1
 0 <= x111 <= 1
 0 <= x112 <= 1
 0 <= x113 <= 1
 0 <= x114 <= 1
 0 <= x115 <= 1
 0 <= x116 <= 1
 0 <= x117 <= 1
 0 <= x118 <= 1
 0 <= x119 <= 1
 0 <= x120 <= 1
 0 <= x121 <= 1
 0 <= x122 <= 1
 0 <= x123 <= 1
 0 <= x124 <= 1
 0 <= x125 <= 1
 0 <= x126 <= 1
 0 <= x127 <= 1
 0 <= x128 <= 1
 0 <= x129 <= 1
 0 <= x130 <= 1
 0 <= x131 <= 1
 0 <= x132 <= 1
 0 <= x133 <= 1
 0 <= x134 <= 1
 0 <= x135 <= 1
 0 <= x136 <= 1
 0 <= x137 <= 1
 0 <= x138 <= 1
 0 <= x139 <= 1
 0 <= x140 <= 1
 0 <= x141 <= 1
 0 <= x142 <= 1
 0 <= x143 <= 1
 0 <= x144 <= 1
 0 <= x145 <= 1
 0 <= x146 <= 1
 0 <= x147 <= 1
 0 <= x148 <= 1
 0 <= x149 <= 1
 0 <= x150 <= 1
 0 <= x151 <= 1
 0 <= x152 <= 1
 0 <= x153 <= 1
 0 <= x154 <= 1
 0 <= x155 <= 1
 0 <= x156 <= 1
 0 <= x157 <= 1
 0 <= x158 <= 1
 0 <= x159 <= 1
 0 <= x160 <= 1
 0 <= x161 <= 1
 0 <= x162 <= 1
 0 <= x163 <= 1
 0 <= x164 <= 1
 0 <= x165 <= 1
 0 <= x166 <= 1
 0 <= x167 <= 1
 0 <= x168 <= 1
 0 <= x169 <= 1
 0 <= x170 <= 1
 0 <= x171 <= 1
 0 <= x172 <= 1
 0 <= x173 <= 1
 0 <= x174 <= 1
 0 <= x175 <= 1
 0 <= x176 <= 1
 0 <= x177 <= 1
 0 <= x178 <= 1
 0 <= x179 <= 1
 0 <= x180 <= 1
 0 <= x181 <= 1
 0 <= x182 <= 1
 0 <= x183 <= 1
 0 <= x184 <= 1
 0 <= x185 <= 1
 0 <= x186 <= 1
 0 <= x187 <= 1
 0 <= x188 <= 1
 0 <= x189 <= 1
 0 <= x190 <= 1
 0 <= x191 <= 1
 0 <= x192 <= 1
 0 <= x193 <= 1
 0 <= x194 <= 1
 0 <= x195 <= 1
 0 <= x196 <= 1
 0 <= x197 <= 1
 0 <= x198 <= 1
 0 <= x199 <= 1
 0 <= x200 <= 1
 0 <= x201 <= 1
 0 <= x202 <= 1
 0 <= x203 <= 1
 0 <= x204 <= 1
 0 <= x205 <= 1
 0 <= x206 <= 1
 0 <= x207 <= 1
 0 <= x208 <= 1
 0 <= x209 <= 1
Binaries
 x0 x1 x2 x3 x4 x5 x6 x7 x8 x9 x10 x11 x12 x13 x14 x15 x16 x17 x18 x19 x20 x21 x22 x23 x24 x25 x26 x27
 x28 x29 x30 x31 x32 x33 x34 x35 x36 x37 x38 x39 x40 x41 x42 x43 x44 x45 x46 x47 x48 x49 x50 x51 x52 x53
 x54 x55 x56 x57 x58 x59 x60 x61 x62 x63 x64 x65 x66 x67 x68 x69 x70 x71 x72 x73 x74 x75 x76 x77 x78 x79
 x80 x81 x82 x83 x84 x85 x86 x87 x88 x89 x90 x91 x92 x93 x94 x95 x96 x97 x98 x99 x100 x101 x102 x103 x104
 x105 x106 x107 x108 x109 x110 x111 x112 x113 x114 x115 x116 x117 x118 x119 x120 x121 x122 x123 x124 x125
 x126 x127 x128 x129 x130 x131 x132 x133 x134 x135 x136 x137 x138 x139 x140 x141 x142 x143 x144 x145 x146
 x147 x148 x149 x150 x151 x152 x153 x154 x155 x156 x157 x158 x159 x160 x161 x162 x163 x164 x165 x166 x167
 x168 x169 x170 x171 x172 x173 x174 x175 x176 x177 x178 x179 x180 x181 x182 x183 x184 x185 x186 x187 x188
 x189 x190 x191 x192 x193 x194 x195 x196 x197 x198 x199 x200 x201 x202 x203 x204 x205 x206 x207 x208 x209
End
